p cnf 10 50
-1 5 9 0
-6 -1 5 0
-2 9 8 0
6 -1 -5 0
-8 4 -10 0
6 -3 1 0
-1 7 -6 0
-9 -3 8 0
-5 7 8 0
-9 -5 -4 0
-6 -10 -1 0
4 -9 6 0
-3 -6 1 0
7 -2 -4 0
-4 -10 -7 0
2 9 -5 0
6 3 -1 0
-6 -2 -8 0
-10 -6 4 0
8 -7 1 0
7 4 -9 0
7 10 9 0
-4 -10 -1 0
-7 -10 2 0
-2 3 1 0
-9 3 -5 0
-4 10 1 0
6 3 9 0
-1 -3 -4 0
8 -1 9 0
6 3 5 0
-10 -6 -5 0
9 3 10 0
9 -6 -5 0
7 -4 10 0
10 -5 -9 0
5 2 10 0
-6 -2 -10 0
4 8 10 0
9 -3 -1 0
-3 1 -5 0
2 -10 -5 0
2 -10 -5 0
9 10 4 0
-6 5 -4 0
5 -3 -4 0
-9 8 -4 0
10 -2 -7 0
-8 1 9 0
7 8 10 0